(declare-fun cmp205.not.i.i_32_101 () (_ BitVec 1))
(declare-fun narrow_32_103 () (_ BitVec 1))
(declare-fun cmp201.i.i_32_100 () (_ BitVec 1))
(declare-fun i145.i.i_32_98 () (_ BitVec 64))
(declare-fun i139.i.i_32_97 () (_ BitVec 64))
(declare-fun i147.i.i_32_99 () (_ BitVec 64))
(declare-fun i137.i.i_32_96 () (_ BitVec 64))
(declare-fun src_reg_32_23 () (_ BitVec 64))
(declare-fun src_reg_32_22 () (_ BitVec 64))
(declare-fun dst_reg_32_5 () (_ BitVec 64))
(declare-fun dst_reg_32_4 () (_ BitVec 64))
(declare-fun i30.i32_32_95 () (_ BitVec 32))
(declare-fun src_reg_32_29 () (_ BitVec 32))
(declare-fun i29.i29_32_94 () (_ BitVec 32))
(declare-fun src_reg_32_28 () (_ BitVec 32))
(declare-fun i28.i26_32_93 () (_ BitVec 32))
(declare-fun src_reg_32_27 () (_ BitVec 32))
(declare-fun i27.i23_32_92 () (_ BitVec 32))
(declare-fun src_reg_32_26 () (_ BitVec 32))
(declare-fun i26.i20_32_91 () (_ BitVec 64))
(declare-fun src_reg_32_25 () (_ BitVec 64))
(declare-fun i25.i17_32_90 () (_ BitVec 64))
(declare-fun src_reg_32_24 () (_ BitVec 64))
(declare-fun i24.i14_32_89 () (_ BitVec 64))
(declare-fun i23.i11_32_88 () (_ BitVec 64))
(declare-fun i22.i8_32_87 () (_ BitVec 64))
(declare-fun src_reg_32_21 () (_ BitVec 64))
(declare-fun i21.i5_32_86 () (_ BitVec 64))
(declare-fun src_reg_32_20 () (_ BitVec 64))
(declare-fun i.i2_32_85 () (_ BitVec 32))
(declare-fun i30.i_32_84 () (_ BitVec 32))
(declare-fun dst_reg_32_11 () (_ BitVec 32))
(declare-fun i29.i_32_83 () (_ BitVec 32))
(declare-fun dst_reg_32_10 () (_ BitVec 32))
(declare-fun i28.i_32_82 () (_ BitVec 32))
(declare-fun dst_reg_32_9 () (_ BitVec 32))
(declare-fun i27.i_32_81 () (_ BitVec 32))
(declare-fun dst_reg_32_8 () (_ BitVec 32))
(declare-fun i26.i_32_80 () (_ BitVec 64))
(declare-fun dst_reg_32_7 () (_ BitVec 64))
(declare-fun i25.i_32_79 () (_ BitVec 64))
(declare-fun dst_reg_32_6 () (_ BitVec 64))
(declare-fun i24.i_32_78 () (_ BitVec 64))
(declare-fun i23.i_32_77 () (_ BitVec 64))
(declare-fun i22.i_32_76 () (_ BitVec 64))
(declare-fun dst_reg_32_3 () (_ BitVec 64))
(declare-fun i21.i_32_75 () (_ BitVec 64))
(declare-fun dst_reg_32_2 () (_ BitVec 64))
(declare-fun i.i_32_74 () (_ BitVec 32))
(declare-fun other_branch_src_reg_32_71 () (_ BitVec 8))
(declare-fun other_branch_src_reg_32_70 () (_ BitVec 32))
(declare-fun other_branch_src_reg_32_69 () (_ BitVec 32))
(declare-fun other_branch_src_reg_32_68 () (_ BitVec 32))
(declare-fun other_branch_src_reg_32_67 () (_ BitVec 32))
(declare-fun other_branch_src_reg_32_66 () (_ BitVec 32))
(declare-fun other_branch_src_reg_32_65 () (_ BitVec 32))
(declare-fun other_branch_src_reg_32_64 () (_ BitVec 32))
(declare-fun other_branch_src_reg_32_63 () (_ BitVec 32))
(declare-fun other_branch_src_reg_32_62 () (_ BitVec 32))
(declare-fun other_branch_src_reg_32_61 () (_ BitVec 64))
(declare-fun other_branch_src_reg_32_60 () (_ BitVec 64))
(declare-fun other_branch_src_reg_32_59 () (_ BitVec 64))
(declare-fun other_branch_src_reg_32_58 () (_ BitVec 64))
(declare-fun other_branch_src_reg_32_57 () (_ BitVec 64))
(declare-fun other_branch_src_reg_32_56 () (_ BitVec 64))
(declare-fun other_branch_src_reg_32_55 () (_ BitVec 32))
(declare-fun other_branch_src_reg_32_54 () (_ BitVec 32))
(declare-fun other_branch_dst_reg_32_53 () (_ BitVec 8))
(declare-fun other_branch_dst_reg_32_52 () (_ BitVec 32))
(declare-fun other_branch_dst_reg_32_51 () (_ BitVec 32))
(declare-fun other_branch_dst_reg_32_50 () (_ BitVec 32))
(declare-fun other_branch_dst_reg_32_49 () (_ BitVec 32))
(declare-fun other_branch_dst_reg_32_48 () (_ BitVec 32))
(declare-fun other_branch_dst_reg_32_47 () (_ BitVec 32))
(declare-fun other_branch_dst_reg_32_46 () (_ BitVec 32))
(declare-fun other_branch_dst_reg_32_45 () (_ BitVec 32))
(declare-fun other_branch_dst_reg_32_44 () (_ BitVec 32))
(declare-fun other_branch_dst_reg_32_43 () (_ BitVec 64))
(declare-fun other_branch_dst_reg_32_42 () (_ BitVec 64))
(declare-fun other_branch_dst_reg_32_41 () (_ BitVec 64))
(declare-fun other_branch_dst_reg_32_40 () (_ BitVec 64))
(declare-fun other_branch_dst_reg_32_39 () (_ BitVec 64))
(declare-fun other_branch_dst_reg_32_38 () (_ BitVec 64))
(declare-fun other_branch_dst_reg_32_37 () (_ BitVec 32))
(declare-fun other_branch_dst_reg_32_36 () (_ BitVec 32))
(declare-fun src_reg_32_35 () (_ BitVec 8))
(declare-fun src_reg_32_34 () (_ BitVec 32))
(declare-fun src_reg_32_33 () (_ BitVec 32))
(declare-fun src_reg_32_32 () (_ BitVec 32))
(declare-fun src_reg_32_31 () (_ BitVec 32))
(declare-fun src_reg_32_30 () (_ BitVec 32))
(declare-fun src_reg_32_19 () (_ BitVec 32))
(declare-fun src_reg_32_18 () (_ BitVec 32))
(declare-fun dst_reg_32_17 () (_ BitVec 8))
(declare-fun dst_reg_32_16 () (_ BitVec 32))
(declare-fun dst_reg_32_15 () (_ BitVec 32))
(declare-fun dst_reg_32_14 () (_ BitVec 32))
(declare-fun dst_reg_32_13 () (_ BitVec 32))
(declare-fun dst_reg_32_12 () (_ BitVec 32))
(declare-fun dst_reg_32_1 () (_ BitVec 32))
(declare-fun dst_reg_32_0 () (_ BitVec 32))
(declare-fun cmp.not.i_32_106 () (_ BitVec 1))
(declare-fun i.i35_32_104 () (_ BitVec 32))
(declare-fun cmp2.not.i_32_109 () (_ BitVec 1))
(declare-fun i1.i_32_107 () (_ BitVec 32))
(declare-fun i377.i582.i_32_124 () (_ BitVec 64))
(declare-fun cond441.i584.i_32_126 () (_ BitVec 64))
(declare-fun add433.i580.i_32_123 () (_ BitVec 64))
(declare-fun cmp436.i583.i_32_125 () (_ BitVec 1))
(declare-fun i376.i579.i_32_121 () (_ BitVec 64))
(declare-fun sub423.i575.i_32_118 () (_ BitVec 64))
(declare-fun cond430.i577.i_32_120 () (_ BitVec 64))
(declare-fun i374.i572.i_32_115 () (_ BitVec 64))
(declare-fun cmp425.i576.i_32_119 () (_ BitVec 1))
(declare-fun i375.i574.i_32_116 () (_ BitVec 64))
(declare-fun i369.i.i_32_112 () (_ BitVec 64))
(declare-fun cond392.i.i_32_114 () (_ BitVec 64))
(declare-fun cmp387.i.i_32_113 () (_ BitVec 1))
(declare-fun cond382.i.i_32_111 () (_ BitVec 64))
(declare-fun cmp377.i.i_32_110 () (_ BitVec 1))
(declare-fun other_branch_src_reg_32_270 () (_ BitVec 8))
(declare-fun other_branch_src_reg_32_198 () (_ BitVec 8))
(declare-fun other_branch_src_reg_32_269 () (_ BitVec 32))
(declare-fun other_branch_src_reg_32_197 () (_ BitVec 32))
(declare-fun other_branch_src_reg_32_268 () (_ BitVec 32))
(declare-fun other_branch_src_reg_32_196 () (_ BitVec 32))
(declare-fun other_branch_src_reg_32_267 () (_ BitVec 32))
(declare-fun other_branch_src_reg_32_195 () (_ BitVec 32))
(declare-fun other_branch_src_reg_32_266 () (_ BitVec 32))
(declare-fun other_branch_src_reg_32_194 () (_ BitVec 32))
(declare-fun other_branch_src_reg_32_265 () (_ BitVec 32))
(declare-fun other_branch_src_reg_32_193 () (_ BitVec 32))
(declare-fun other_branch_src_reg_32_264 () (_ BitVec 32))
(declare-fun other_branch_src_reg_32_192 () (_ BitVec 32))
(declare-fun other_branch_src_reg_32_263 () (_ BitVec 32))
(declare-fun other_branch_src_reg_32_191 () (_ BitVec 32))
(declare-fun other_branch_src_reg_32_262 () (_ BitVec 32))
(declare-fun other_branch_src_reg_32_190 () (_ BitVec 32))
(declare-fun other_branch_src_reg_32_261 () (_ BitVec 32))
(declare-fun other_branch_src_reg_32_189 () (_ BitVec 32))
(declare-fun other_branch_src_reg_32_260 () (_ BitVec 64))
(declare-fun other_branch_src_reg_32_188 () (_ BitVec 64))
(declare-fun other_branch_src_reg_32_259 () (_ BitVec 64))
(declare-fun other_branch_src_reg_32_187 () (_ BitVec 64))
(declare-fun other_branch_src_reg_32_258 () (_ BitVec 64))
(declare-fun other_branch_src_reg_32_186 () (_ BitVec 64))
(declare-fun other_branch_src_reg_32_257 () (_ BitVec 64))
(declare-fun other_branch_src_reg_32_185 () (_ BitVec 64))
(declare-fun other_branch_src_reg_32_256 () (_ BitVec 64))
(declare-fun other_branch_src_reg_32_184 () (_ BitVec 64))
(declare-fun other_branch_src_reg_32_255 () (_ BitVec 64))
(declare-fun other_branch_src_reg_32_183 () (_ BitVec 64))
(declare-fun other_branch_src_reg_32_254 () (_ BitVec 32))
(declare-fun other_branch_src_reg_32_182 () (_ BitVec 32))
(declare-fun other_branch_src_reg_32_253 () (_ BitVec 32))
(declare-fun other_branch_src_reg_32_181 () (_ BitVec 32))
(declare-fun other_branch_dst_reg_32_252 () (_ BitVec 8))
(declare-fun other_branch_dst_reg_32_180 () (_ BitVec 8))
(declare-fun other_branch_dst_reg_32_251 () (_ BitVec 32))
(declare-fun other_branch_dst_reg_32_179 () (_ BitVec 32))
(declare-fun other_branch_dst_reg_32_250 () (_ BitVec 32))
(declare-fun other_branch_dst_reg_32_178 () (_ BitVec 32))
(declare-fun other_branch_dst_reg_32_249 () (_ BitVec 32))
(declare-fun other_branch_dst_reg_32_177 () (_ BitVec 32))
(declare-fun other_branch_dst_reg_32_248 () (_ BitVec 32))
(declare-fun other_branch_dst_reg_32_176 () (_ BitVec 32))
(declare-fun other_branch_dst_reg_32_247 () (_ BitVec 32))
(declare-fun other_branch_dst_reg_32_175 () (_ BitVec 32))
(declare-fun other_branch_dst_reg_32_246 () (_ BitVec 32))
(declare-fun other_branch_dst_reg_32_174 () (_ BitVec 32))
(declare-fun other_branch_dst_reg_32_245 () (_ BitVec 32))
(declare-fun other_branch_dst_reg_32_173 () (_ BitVec 32))
(declare-fun other_branch_dst_reg_32_244 () (_ BitVec 32))
(declare-fun other_branch_dst_reg_32_172 () (_ BitVec 32))
(declare-fun other_branch_dst_reg_32_243 () (_ BitVec 32))
(declare-fun other_branch_dst_reg_32_171 () (_ BitVec 32))
(declare-fun other_branch_dst_reg_32_242 () (_ BitVec 64))
(declare-fun other_branch_dst_reg_32_170 () (_ BitVec 64))
(declare-fun other_branch_dst_reg_32_241 () (_ BitVec 64))
(declare-fun other_branch_dst_reg_32_169 () (_ BitVec 64))
(declare-fun other_branch_dst_reg_32_240 () (_ BitVec 64))
(declare-fun other_branch_dst_reg_32_168 () (_ BitVec 64))
(declare-fun other_branch_dst_reg_32_239 () (_ BitVec 64))
(declare-fun other_branch_dst_reg_32_167 () (_ BitVec 64))
(declare-fun other_branch_dst_reg_32_238 () (_ BitVec 64))
(declare-fun other_branch_dst_reg_32_166 () (_ BitVec 64))
(declare-fun other_branch_dst_reg_32_237 () (_ BitVec 64))
(declare-fun other_branch_dst_reg_32_165 () (_ BitVec 64))
(declare-fun other_branch_dst_reg_32_236 () (_ BitVec 32))
(declare-fun other_branch_dst_reg_32_164 () (_ BitVec 32))
(declare-fun other_branch_dst_reg_32_235 () (_ BitVec 32))
(declare-fun other_branch_dst_reg_32_163 () (_ BitVec 32))
(declare-fun src_reg_32_234 () (_ BitVec 8))
(declare-fun src_reg_32_162 () (_ BitVec 8))
(declare-fun src_reg_32_233 () (_ BitVec 32))
(declare-fun src_reg_32_161 () (_ BitVec 32))
(declare-fun src_reg_32_232 () (_ BitVec 32))
(declare-fun src_reg_32_160 () (_ BitVec 32))
(declare-fun src_reg_32_231 () (_ BitVec 32))
(declare-fun src_reg_32_159 () (_ BitVec 32))
(declare-fun src_reg_32_230 () (_ BitVec 32))
(declare-fun src_reg_32_158 () (_ BitVec 32))
(declare-fun src_reg_32_229 () (_ BitVec 32))
(declare-fun src_reg_32_157 () (_ BitVec 32))
(declare-fun src_reg_32_228 () (_ BitVec 32))
(declare-fun src_reg_32_156 () (_ BitVec 32))
(declare-fun src_reg_32_227 () (_ BitVec 32))
(declare-fun src_reg_32_155 () (_ BitVec 32))
(declare-fun src_reg_32_226 () (_ BitVec 32))
(declare-fun src_reg_32_154 () (_ BitVec 32))
(declare-fun src_reg_32_225 () (_ BitVec 32))
(declare-fun src_reg_32_153 () (_ BitVec 32))
(declare-fun src_reg_32_224 () (_ BitVec 64))
(declare-fun src_reg_32_152 () (_ BitVec 64))
(declare-fun src_reg_32_223 () (_ BitVec 64))
(declare-fun src_reg_32_151 () (_ BitVec 64))
(declare-fun src_reg_32_222 () (_ BitVec 64))
(declare-fun src_reg_32_150 () (_ BitVec 64))
(declare-fun src_reg_32_221 () (_ BitVec 64))
(declare-fun src_reg_32_149 () (_ BitVec 64))
(declare-fun src_reg_32_220 () (_ BitVec 64))
(declare-fun src_reg_32_148 () (_ BitVec 64))
(declare-fun src_reg_32_219 () (_ BitVec 64))
(declare-fun src_reg_32_147 () (_ BitVec 64))
(declare-fun src_reg_32_218 () (_ BitVec 32))
(declare-fun src_reg_32_146 () (_ BitVec 32))
(declare-fun src_reg_32_217 () (_ BitVec 32))
(declare-fun src_reg_32_145 () (_ BitVec 32))
(declare-fun dst_reg_32_216 () (_ BitVec 8))
(declare-fun dst_reg_32_144 () (_ BitVec 8))
(declare-fun dst_reg_32_215 () (_ BitVec 32))
(declare-fun dst_reg_32_143 () (_ BitVec 32))
(declare-fun dst_reg_32_214 () (_ BitVec 32))
(declare-fun dst_reg_32_142 () (_ BitVec 32))
(declare-fun dst_reg_32_213 () (_ BitVec 32))
(declare-fun dst_reg_32_141 () (_ BitVec 32))
(declare-fun dst_reg_32_212 () (_ BitVec 32))
(declare-fun dst_reg_32_140 () (_ BitVec 32))
(declare-fun dst_reg_32_211 () (_ BitVec 32))
(declare-fun dst_reg_32_139 () (_ BitVec 32))
(declare-fun dst_reg_32_210 () (_ BitVec 32))
(declare-fun dst_reg_32_138 () (_ BitVec 32))
(declare-fun dst_reg_32_209 () (_ BitVec 32))
(declare-fun dst_reg_32_137 () (_ BitVec 32))
(declare-fun dst_reg_32_208 () (_ BitVec 32))
(declare-fun dst_reg_32_136 () (_ BitVec 32))
(declare-fun dst_reg_32_207 () (_ BitVec 32))
(declare-fun dst_reg_32_135 () (_ BitVec 32))
(declare-fun dst_reg_32_206 () (_ BitVec 64))
(declare-fun dst_reg_32_134 () (_ BitVec 64))
(declare-fun dst_reg_32_205 () (_ BitVec 64))
(declare-fun dst_reg_32_133 () (_ BitVec 64))
(declare-fun dst_reg_32_204 () (_ BitVec 64))
(declare-fun dst_reg_32_132 () (_ BitVec 64))
(declare-fun dst_reg_32_203 () (_ BitVec 64))
(declare-fun dst_reg_32_131 () (_ BitVec 64))
(declare-fun dst_reg_32_202 () (_ BitVec 64))
(declare-fun dst_reg_32_130 () (_ BitVec 64))
(declare-fun dst_reg_32_201 () (_ BitVec 64))
(declare-fun dst_reg_32_129 () (_ BitVec 64))
(declare-fun dst_reg_32_200 () (_ BitVec 32))
(declare-fun dst_reg_32_128 () (_ BitVec 32))
(declare-fun dst_reg_32_199 () (_ BitVec 32))
(declare-fun dst_reg_32_127 () (_ BitVec 32))
(assert (let ((a!1 (and (= cmp2.not.i_32_109 #b1)
                (and (= cmp.not.i_32_106 #b1) (= narrow_32_103 #b0))))
      (a!2 (and (= cmp2.not.i_32_109 #b0)
                (and (= cmp.not.i_32_106 #b1) (= narrow_32_103 #b0))))
      (a!3 (and (= i.i2_32_85 other_branch_src_reg_32_181)
                (= other_branch_src_reg_32_55 other_branch_src_reg_32_182)
                (= i21.i5_32_86 other_branch_src_reg_32_183)
                (= i22.i8_32_87 other_branch_src_reg_32_184)
                (= i23.i11_32_88 other_branch_src_reg_32_185)
                (= i24.i14_32_89 other_branch_src_reg_32_186)
                (= i25.i17_32_90 other_branch_src_reg_32_187)
                (= i26.i20_32_91 other_branch_src_reg_32_188)
                (= i27.i23_32_92 other_branch_src_reg_32_189)
                (= i28.i26_32_93 other_branch_src_reg_32_190)
                (= i29.i29_32_94 other_branch_src_reg_32_191)
                (= i30.i32_32_95 other_branch_src_reg_32_192)
                (= other_branch_src_reg_32_66 other_branch_src_reg_32_193)
                (= other_branch_src_reg_32_67 other_branch_src_reg_32_194)
                (= other_branch_src_reg_32_68 other_branch_src_reg_32_195)
                (= other_branch_src_reg_32_69 other_branch_src_reg_32_196)
                (= other_branch_src_reg_32_70 other_branch_src_reg_32_197)
                (= other_branch_src_reg_32_71 other_branch_src_reg_32_198)
                (= i.i_32_74 other_branch_dst_reg_32_163)
                (= other_branch_dst_reg_32_37 other_branch_dst_reg_32_164)
                (= i21.i_32_75 other_branch_dst_reg_32_165)
                (= i22.i_32_76 other_branch_dst_reg_32_166)
                (= i23.i_32_77 other_branch_dst_reg_32_167)
                (= i24.i_32_78 other_branch_dst_reg_32_168)
                (= i25.i_32_79 other_branch_dst_reg_32_169)
                (= i26.i_32_80 other_branch_dst_reg_32_170)
                (= i27.i_32_81 other_branch_dst_reg_32_171)
                (= i28.i_32_82 other_branch_dst_reg_32_172)
                (= i29.i_32_83 other_branch_dst_reg_32_173)
                (= i30.i_32_84 other_branch_dst_reg_32_174)
                (= other_branch_dst_reg_32_48 other_branch_dst_reg_32_175)
                (= other_branch_dst_reg_32_49 other_branch_dst_reg_32_176)
                (= other_branch_dst_reg_32_50 other_branch_dst_reg_32_177)
                (= other_branch_dst_reg_32_51 other_branch_dst_reg_32_178)
                (= other_branch_dst_reg_32_52 other_branch_dst_reg_32_179)
                (= other_branch_dst_reg_32_53 other_branch_dst_reg_32_180)
                (= #x00000001 src_reg_32_145)
                (= src_reg_32_19 src_reg_32_146)
                (= src_reg_32_20 src_reg_32_147)
                (= src_reg_32_21 src_reg_32_148)
                (= src_reg_32_22 src_reg_32_149)
                (= src_reg_32_23 src_reg_32_150)
                (= src_reg_32_24 src_reg_32_151)
                (= src_reg_32_25 src_reg_32_152)
                (= src_reg_32_26 src_reg_32_153)
                (= src_reg_32_27 src_reg_32_154)
                (= src_reg_32_28 src_reg_32_155)
                (= src_reg_32_29 src_reg_32_156)
                (= src_reg_32_30 src_reg_32_157)
                (= src_reg_32_31 src_reg_32_158)
                (= src_reg_32_32 src_reg_32_159)
                (= src_reg_32_33 src_reg_32_160)
                (= src_reg_32_34 src_reg_32_161)
                (= src_reg_32_35 src_reg_32_162)
                (= #x00000001 dst_reg_32_127)
                (= dst_reg_32_1 dst_reg_32_128)
                (= dst_reg_32_2 dst_reg_32_129)
                (= dst_reg_32_3 dst_reg_32_130)
                (= dst_reg_32_4 dst_reg_32_131)
                (= dst_reg_32_5 dst_reg_32_132)
                (= dst_reg_32_6 dst_reg_32_133)
                (= dst_reg_32_7 dst_reg_32_134)
                (= dst_reg_32_8 dst_reg_32_135)
                (= dst_reg_32_9 dst_reg_32_136)
                (= dst_reg_32_10 dst_reg_32_137)
                (= dst_reg_32_11 dst_reg_32_138)
                (= dst_reg_32_12 dst_reg_32_139)
                (= dst_reg_32_13 dst_reg_32_140)
                (= dst_reg_32_14 dst_reg_32_141)
                (= dst_reg_32_15 dst_reg_32_142)
                (= dst_reg_32_16 dst_reg_32_143)
                (= dst_reg_32_17 dst_reg_32_144)))
      (a!7 (=> (and (= cmp.not.i_32_106 #b1) (= narrow_32_103 #b0))
               (and (= #x00000001 i1.i_32_107)
                    (ite (= i1.i_32_107 #x00000001)
                         (= cmp2.not.i_32_109 #b1)
                         (= cmp2.not.i_32_109 #b0)))))
      (a!8 (=> (= narrow_32_103 #b0)
               (and (= #x00000001 i.i35_32_104)
                    (ite (= i.i35_32_104 #x00000001)
                         (= cmp.not.i_32_106 #b1)
                         (= cmp.not.i_32_106 #b0))))))
(let ((a!4 (and (=> (= narrow_32_103 #b1) a!3)
                (=> (and (= cmp.not.i_32_106 #b0) (= narrow_32_103 #b0)) a!3)
                (=> a!2 a!3)
                (=> a!1
                    (and (= i.i2_32_85 other_branch_src_reg_32_181)
                         (= other_branch_src_reg_32_55
                            other_branch_src_reg_32_182)
                         (= i21.i5_32_86 other_branch_src_reg_32_183)
                         (= i22.i8_32_87 other_branch_src_reg_32_184)
                         (= i23.i11_32_88 other_branch_src_reg_32_185)
                         (= cond430.i577.i_32_120 other_branch_src_reg_32_186)
                         (= i25.i17_32_90 other_branch_src_reg_32_187)
                         (= i26.i20_32_91 other_branch_src_reg_32_188)
                         (= i27.i23_32_92 other_branch_src_reg_32_189)
                         (= i28.i26_32_93 other_branch_src_reg_32_190)
                         (= i29.i29_32_94 other_branch_src_reg_32_191)
                         (= i30.i32_32_95 other_branch_src_reg_32_192)
                         (= other_branch_src_reg_32_66
                            other_branch_src_reg_32_193)
                         (= other_branch_src_reg_32_67
                            other_branch_src_reg_32_194)
                         (= other_branch_src_reg_32_68
                            other_branch_src_reg_32_195)
                         (= other_branch_src_reg_32_69
                            other_branch_src_reg_32_196)
                         (= other_branch_src_reg_32_70
                            other_branch_src_reg_32_197)
                         (= other_branch_src_reg_32_71
                            other_branch_src_reg_32_198)
                         (= i.i_32_74 other_branch_dst_reg_32_163)
                         (= other_branch_dst_reg_32_37
                            other_branch_dst_reg_32_164)
                         (= i21.i_32_75 other_branch_dst_reg_32_165)
                         (= i22.i_32_76 other_branch_dst_reg_32_166)
                         (= cond441.i584.i_32_126 other_branch_dst_reg_32_167)
                         (= i24.i_32_78 other_branch_dst_reg_32_168)
                         (= i25.i_32_79 other_branch_dst_reg_32_169)
                         (= i26.i_32_80 other_branch_dst_reg_32_170)
                         (= i27.i_32_81 other_branch_dst_reg_32_171)
                         (= i28.i_32_82 other_branch_dst_reg_32_172)
                         (= i29.i_32_83 other_branch_dst_reg_32_173)
                         (= i30.i_32_84 other_branch_dst_reg_32_174)
                         (= other_branch_dst_reg_32_48
                            other_branch_dst_reg_32_175)
                         (= other_branch_dst_reg_32_49
                            other_branch_dst_reg_32_176)
                         (= other_branch_dst_reg_32_50
                            other_branch_dst_reg_32_177)
                         (= other_branch_dst_reg_32_51
                            other_branch_dst_reg_32_178)
                         (= other_branch_dst_reg_32_52
                            other_branch_dst_reg_32_179)
                         (= other_branch_dst_reg_32_53
                            other_branch_dst_reg_32_180)
                         (= #x00000001 src_reg_32_145)
                         (= src_reg_32_19 src_reg_32_146)
                         (= src_reg_32_20 src_reg_32_147)
                         (= src_reg_32_21 src_reg_32_148)
                         (= cond392.i.i_32_114 src_reg_32_149)
                         (= src_reg_32_23 src_reg_32_150)
                         (= src_reg_32_24 src_reg_32_151)
                         (= src_reg_32_25 src_reg_32_152)
                         (= src_reg_32_26 src_reg_32_153)
                         (= src_reg_32_27 src_reg_32_154)
                         (= src_reg_32_28 src_reg_32_155)
                         (= src_reg_32_29 src_reg_32_156)
                         (= src_reg_32_30 src_reg_32_157)
                         (= src_reg_32_31 src_reg_32_158)
                         (= src_reg_32_32 src_reg_32_159)
                         (= src_reg_32_33 src_reg_32_160)
                         (= src_reg_32_34 src_reg_32_161)
                         (= src_reg_32_35 src_reg_32_162)
                         (= #x00000001 dst_reg_32_127)
                         (= dst_reg_32_1 dst_reg_32_128)
                         (= dst_reg_32_2 dst_reg_32_129)
                         (= dst_reg_32_3 dst_reg_32_130)
                         (= dst_reg_32_4 dst_reg_32_131)
                         (= cond382.i.i_32_111 dst_reg_32_132)
                         (= dst_reg_32_6 dst_reg_32_133)
                         (= dst_reg_32_7 dst_reg_32_134)
                         (= dst_reg_32_8 dst_reg_32_135)
                         (= dst_reg_32_9 dst_reg_32_136)
                         (= dst_reg_32_10 dst_reg_32_137)
                         (= dst_reg_32_11 dst_reg_32_138)
                         (= dst_reg_32_12 dst_reg_32_139)
                         (= dst_reg_32_13 dst_reg_32_140)
                         (= dst_reg_32_14 dst_reg_32_141)
                         (= dst_reg_32_15 dst_reg_32_142)
                         (= dst_reg_32_16 dst_reg_32_143)
                         (= dst_reg_32_17 dst_reg_32_144)))
                (= dst_reg_32_127 dst_reg_32_199)
                (= dst_reg_32_128 dst_reg_32_200)
                (= dst_reg_32_129 dst_reg_32_201)
                (= dst_reg_32_130 dst_reg_32_202)
                (= dst_reg_32_131 dst_reg_32_203)
                (= dst_reg_32_132 dst_reg_32_204)
                (= dst_reg_32_133 dst_reg_32_205)
                (= dst_reg_32_134 dst_reg_32_206)
                (= dst_reg_32_135 dst_reg_32_207)
                (= dst_reg_32_136 dst_reg_32_208)
                (= dst_reg_32_137 dst_reg_32_209)
                (= dst_reg_32_138 dst_reg_32_210)
                (= dst_reg_32_139 dst_reg_32_211)
                (= dst_reg_32_140 dst_reg_32_212)
                (= dst_reg_32_141 dst_reg_32_213)
                (= dst_reg_32_142 dst_reg_32_214)
                (= dst_reg_32_143 dst_reg_32_215)
                (= dst_reg_32_144 dst_reg_32_216)
                (= src_reg_32_145 src_reg_32_217)
                (= src_reg_32_146 src_reg_32_218)
                (= src_reg_32_147 src_reg_32_219)
                (= src_reg_32_148 src_reg_32_220)
                (= src_reg_32_149 src_reg_32_221)
                (= src_reg_32_150 src_reg_32_222)
                (= src_reg_32_151 src_reg_32_223)
                (= src_reg_32_152 src_reg_32_224)
                (= src_reg_32_153 src_reg_32_225)
                (= src_reg_32_154 src_reg_32_226)
                (= src_reg_32_155 src_reg_32_227)
                (= src_reg_32_156 src_reg_32_228)
                (= src_reg_32_157 src_reg_32_229)
                (= src_reg_32_158 src_reg_32_230)
                (= src_reg_32_159 src_reg_32_231)
                (= src_reg_32_160 src_reg_32_232)
                (= src_reg_32_161 src_reg_32_233)
                (= src_reg_32_162 src_reg_32_234)
                (= other_branch_dst_reg_32_163 other_branch_dst_reg_32_235)
                (= other_branch_dst_reg_32_164 other_branch_dst_reg_32_236)
                (= other_branch_dst_reg_32_165 other_branch_dst_reg_32_237)
                (= other_branch_dst_reg_32_166 other_branch_dst_reg_32_238)
                (= other_branch_dst_reg_32_167 other_branch_dst_reg_32_239)
                (= other_branch_dst_reg_32_168 other_branch_dst_reg_32_240)
                (= other_branch_dst_reg_32_169 other_branch_dst_reg_32_241)
                (= other_branch_dst_reg_32_170 other_branch_dst_reg_32_242)
                (= other_branch_dst_reg_32_171 other_branch_dst_reg_32_243)
                (= other_branch_dst_reg_32_172 other_branch_dst_reg_32_244)
                (= other_branch_dst_reg_32_173 other_branch_dst_reg_32_245)
                (= other_branch_dst_reg_32_174 other_branch_dst_reg_32_246)
                (= other_branch_dst_reg_32_175 other_branch_dst_reg_32_247)
                (= other_branch_dst_reg_32_176 other_branch_dst_reg_32_248)
                (= other_branch_dst_reg_32_177 other_branch_dst_reg_32_249)
                (= other_branch_dst_reg_32_178 other_branch_dst_reg_32_250)
                (= other_branch_dst_reg_32_179 other_branch_dst_reg_32_251)
                (= other_branch_dst_reg_32_180 other_branch_dst_reg_32_252)
                (= other_branch_src_reg_32_181 other_branch_src_reg_32_253)
                (= other_branch_src_reg_32_182 other_branch_src_reg_32_254)
                (= other_branch_src_reg_32_183 other_branch_src_reg_32_255)
                (= other_branch_src_reg_32_184 other_branch_src_reg_32_256)
                (= other_branch_src_reg_32_185 other_branch_src_reg_32_257)
                (= other_branch_src_reg_32_186 other_branch_src_reg_32_258)
                (= other_branch_src_reg_32_187 other_branch_src_reg_32_259)
                (= other_branch_src_reg_32_188 other_branch_src_reg_32_260)
                (= other_branch_src_reg_32_189 other_branch_src_reg_32_261)
                (= other_branch_src_reg_32_190 other_branch_src_reg_32_262)
                (= other_branch_src_reg_32_191 other_branch_src_reg_32_263)
                (= other_branch_src_reg_32_192 other_branch_src_reg_32_264)
                (= other_branch_src_reg_32_193 other_branch_src_reg_32_265)
                (= other_branch_src_reg_32_194 other_branch_src_reg_32_266)
                (= other_branch_src_reg_32_195 other_branch_src_reg_32_267)
                (= other_branch_src_reg_32_196 other_branch_src_reg_32_268)
                (= other_branch_src_reg_32_197 other_branch_src_reg_32_269)
                (= other_branch_src_reg_32_198 other_branch_src_reg_32_270)))
      (a!6 (=> a!1
               (and (ite (bvslt i139.i.i_32_97 i147.i.i_32_99)
                         (= cmp377.i.i_32_110 #b1)
                         (= cmp377.i.i_32_110 #b0))
                    (ite (= cmp377.i.i_32_110 #b1)
                         (= cond382.i.i_32_111 i139.i.i_32_97)
                         (= cond382.i.i_32_111 i147.i.i_32_99))
                    (= src_reg_32_22 i369.i.i_32_112)
                    (ite (bvsgt i137.i.i_32_96 i369.i.i_32_112)
                         (= cmp387.i.i_32_113 #b1)
                         (= cmp387.i.i_32_113 #b0))
                    (ite (= cmp387.i.i_32_113 #b1)
                         (= cond392.i.i_32_114 i137.i.i_32_96)
                         (= cond392.i.i_32_114 i369.i.i_32_112))
                    (= i24.i14_32_89 i374.i572.i_32_115)
                    (= i24.i_32_78 i375.i574.i_32_116)
                    (= sub423.i575.i_32_118
                       (bvadd i375.i574.i_32_116 #xffffffffffffffff))
                    (ite (bvslt i374.i572.i_32_115 sub423.i575.i_32_118)
                         (= cmp425.i576.i_32_119 #b1)
                         (= cmp425.i576.i_32_119 #b0))
                    (ite (= cmp425.i576.i_32_119 #b1)
                         (= cond430.i577.i_32_120 i374.i572.i_32_115)
                         (= cond430.i577.i_32_120 sub423.i575.i_32_118))
                    (= i23.i11_32_88 i376.i579.i_32_121)
                    (= add433.i580.i_32_123
                       (bvadd i376.i579.i_32_121 #x0000000000000001))
                    (= i23.i_32_77 i377.i582.i_32_124)
                    (ite (bvsgt add433.i580.i_32_123 i377.i582.i_32_124)
                         (= cmp436.i583.i_32_125 #b1)
                         (= cmp436.i583.i_32_125 #b0))
                    (ite (= cmp436.i583.i_32_125 #b1)
                         (= cond441.i584.i_32_126 add433.i580.i_32_123)
                         (= cond441.i584.i_32_126 i377.i582.i_32_124))))))
(let ((a!5 (=> (or a!1
                   a!2
                   (and (= cmp.not.i_32_106 #b0) (= narrow_32_103 #b0))
                   (= narrow_32_103 #b1))
               a!4)))
  (and a!5
       a!6
       a!7
       a!8
       (= dst_reg_32_0 dst_reg_32_0)
       (= dst_reg_32_1 dst_reg_32_1)
       (= dst_reg_32_2 dst_reg_32_2)
       (= dst_reg_32_3 dst_reg_32_3)
       (= dst_reg_32_4 dst_reg_32_4)
       (= dst_reg_32_5 dst_reg_32_5)
       (= dst_reg_32_6 dst_reg_32_6)
       (= dst_reg_32_7 dst_reg_32_7)
       (= dst_reg_32_8 dst_reg_32_8)
       (= dst_reg_32_9 dst_reg_32_9)
       (= dst_reg_32_10 dst_reg_32_10)
       (= dst_reg_32_11 dst_reg_32_11)
       (= dst_reg_32_12 dst_reg_32_12)
       (= dst_reg_32_13 dst_reg_32_13)
       (= dst_reg_32_14 dst_reg_32_14)
       (= dst_reg_32_15 dst_reg_32_15)
       (= dst_reg_32_16 dst_reg_32_16)
       (= dst_reg_32_17 dst_reg_32_17)
       (= src_reg_32_18 src_reg_32_18)
       (= src_reg_32_19 src_reg_32_19)
       (= src_reg_32_20 src_reg_32_20)
       (= src_reg_32_21 src_reg_32_21)
       (= src_reg_32_22 src_reg_32_22)
       (= src_reg_32_23 src_reg_32_23)
       (= src_reg_32_24 src_reg_32_24)
       (= src_reg_32_25 src_reg_32_25)
       (= src_reg_32_26 src_reg_32_26)
       (= src_reg_32_27 src_reg_32_27)
       (= src_reg_32_28 src_reg_32_28)
       (= src_reg_32_29 src_reg_32_29)
       (= src_reg_32_30 src_reg_32_30)
       (= src_reg_32_31 src_reg_32_31)
       (= src_reg_32_32 src_reg_32_32)
       (= src_reg_32_33 src_reg_32_33)
       (= src_reg_32_34 src_reg_32_34)
       (= src_reg_32_35 src_reg_32_35)
       (= other_branch_dst_reg_32_36 other_branch_dst_reg_32_36)
       (= other_branch_dst_reg_32_37 other_branch_dst_reg_32_37)
       (= other_branch_dst_reg_32_38 other_branch_dst_reg_32_38)
       (= other_branch_dst_reg_32_39 other_branch_dst_reg_32_39)
       (= other_branch_dst_reg_32_40 other_branch_dst_reg_32_40)
       (= other_branch_dst_reg_32_41 other_branch_dst_reg_32_41)
       (= other_branch_dst_reg_32_42 other_branch_dst_reg_32_42)
       (= other_branch_dst_reg_32_43 other_branch_dst_reg_32_43)
       (= other_branch_dst_reg_32_44 other_branch_dst_reg_32_44)
       (= other_branch_dst_reg_32_45 other_branch_dst_reg_32_45)
       (= other_branch_dst_reg_32_46 other_branch_dst_reg_32_46)
       (= other_branch_dst_reg_32_47 other_branch_dst_reg_32_47)
       (= other_branch_dst_reg_32_48 other_branch_dst_reg_32_48)
       (= other_branch_dst_reg_32_49 other_branch_dst_reg_32_49)
       (= other_branch_dst_reg_32_50 other_branch_dst_reg_32_50)
       (= other_branch_dst_reg_32_51 other_branch_dst_reg_32_51)
       (= other_branch_dst_reg_32_52 other_branch_dst_reg_32_52)
       (= other_branch_dst_reg_32_53 other_branch_dst_reg_32_53)
       (= other_branch_src_reg_32_54 other_branch_src_reg_32_54)
       (= other_branch_src_reg_32_55 other_branch_src_reg_32_55)
       (= other_branch_src_reg_32_56 other_branch_src_reg_32_56)
       (= other_branch_src_reg_32_57 other_branch_src_reg_32_57)
       (= other_branch_src_reg_32_58 other_branch_src_reg_32_58)
       (= other_branch_src_reg_32_59 other_branch_src_reg_32_59)
       (= other_branch_src_reg_32_60 other_branch_src_reg_32_60)
       (= other_branch_src_reg_32_61 other_branch_src_reg_32_61)
       (= other_branch_src_reg_32_62 other_branch_src_reg_32_62)
       (= other_branch_src_reg_32_63 other_branch_src_reg_32_63)
       (= other_branch_src_reg_32_64 other_branch_src_reg_32_64)
       (= other_branch_src_reg_32_65 other_branch_src_reg_32_65)
       (= other_branch_src_reg_32_66 other_branch_src_reg_32_66)
       (= other_branch_src_reg_32_67 other_branch_src_reg_32_67)
       (= other_branch_src_reg_32_68 other_branch_src_reg_32_68)
       (= other_branch_src_reg_32_69 other_branch_src_reg_32_69)
       (= other_branch_src_reg_32_70 other_branch_src_reg_32_70)
       (= other_branch_src_reg_32_71 other_branch_src_reg_32_71)
       (= #x00000001 i.i_32_74)
       (= dst_reg_32_2 i21.i_32_75)
       (= dst_reg_32_3 i22.i_32_76)
       (= dst_reg_32_4 i23.i_32_77)
       (= dst_reg_32_5 i24.i_32_78)
       (= dst_reg_32_6 i25.i_32_79)
       (= dst_reg_32_7 i26.i_32_80)
       (= dst_reg_32_8 i27.i_32_81)
       (= dst_reg_32_9 i28.i_32_82)
       (= dst_reg_32_10 i29.i_32_83)
       (= dst_reg_32_11 i30.i_32_84)
       (= #x00000001 i.i2_32_85)
       (= src_reg_32_20 i21.i5_32_86)
       (= src_reg_32_21 i22.i8_32_87)
       (= src_reg_32_22 i23.i11_32_88)
       (= src_reg_32_23 i24.i14_32_89)
       (= src_reg_32_24 i25.i17_32_90)
       (= src_reg_32_25 i26.i20_32_91)
       (= src_reg_32_26 i27.i23_32_92)
       (= src_reg_32_27 i28.i26_32_93)
       (= src_reg_32_28 i29.i29_32_94)
       (= src_reg_32_29 i30.i32_32_95)
       (= dst_reg_32_4 i137.i.i_32_96)
       (= dst_reg_32_5 i139.i.i_32_97)
       (= src_reg_32_22 i145.i.i_32_98)
       (= src_reg_32_23 i147.i.i_32_99)
       (ite (bvsgt i137.i.i_32_96 i147.i.i_32_99)
            (= cmp201.i.i_32_100 #b1)
            (= cmp201.i.i_32_100 #b0))
       (ite (bvsle i139.i.i_32_97 i145.i.i_32_98)
            (= cmp205.not.i.i_32_101 #b1)
            (= cmp205.not.i.i_32_101 #b0))
       (ite (= cmp201.i.i_32_100 #b1)
            (= narrow_32_103 #b1)
            (= narrow_32_103 cmp205.not.i.i_32_101)))))))

;{"dst_reg":["dst_reg_32_0","dst_reg_32_1",[""],["dst_reg_32_2","dst_reg_32_3"],"dst_reg_32_4","dst_reg_32_5","dst_reg_32_6","dst_reg_32_7","dst_reg_32_8","dst_reg_32_9","dst_reg_32_10","dst_reg_32_11","dst_reg_32_12","dst_reg_32_13","","","dst_reg_32_14","dst_reg_32_15","dst_reg_32_16"],"other_branch_dst_reg":["other_branch_dst_reg_32_36","other_branch_dst_reg_32_37",[""],["other_branch_dst_reg_32_38","other_branch_dst_reg_32_39"],"other_branch_dst_reg_32_40","other_branch_dst_reg_32_41","other_branch_dst_reg_32_42","other_branch_dst_reg_32_43","other_branch_dst_reg_32_44","other_branch_dst_reg_32_45","other_branch_dst_reg_32_46","other_branch_dst_reg_32_47","other_branch_dst_reg_32_48","other_branch_dst_reg_32_49","","","other_branch_dst_reg_32_50","other_branch_dst_reg_32_51","other_branch_dst_reg_32_52"],"other_branch_src_reg":["other_branch_src_reg_32_54","other_branch_src_reg_32_55",[""],["other_branch_src_reg_32_56","other_branch_src_reg_32_57"],"other_branch_src_reg_32_58","other_branch_src_reg_32_59","other_branch_src_reg_32_60","other_branch_src_reg_32_61","other_branch_src_reg_32_62","other_branch_src_reg_32_63","other_branch_src_reg_32_64","other_branch_src_reg_32_65","other_branch_src_reg_32_66","other_branch_src_reg_32_67","","","other_branch_src_reg_32_68","other_branch_src_reg_32_69","other_branch_src_reg_32_70"],"src_reg":["src_reg_32_18","src_reg_32_19",[""],["src_reg_32_20","src_reg_32_21"],"src_reg_32_22","src_reg_32_23","src_reg_32_24","src_reg_32_25","src_reg_32_26","src_reg_32_27","src_reg_32_28","src_reg_32_29","src_reg_32_30","src_reg_32_31","","","src_reg_32_32","src_reg_32_33","src_reg_32_34"]}
;{"dst_reg":["dst_reg_32_199","dst_reg_32_200",[""],["dst_reg_32_201","dst_reg_32_202"],"dst_reg_32_203","dst_reg_32_204","dst_reg_32_205","dst_reg_32_206","dst_reg_32_207","dst_reg_32_208","dst_reg_32_209","dst_reg_32_210","dst_reg_32_211","dst_reg_32_212","","","dst_reg_32_213","dst_reg_32_214","dst_reg_32_215"],"other_branch_dst_reg":["other_branch_dst_reg_32_235","other_branch_dst_reg_32_236",[""],["other_branch_dst_reg_32_237","other_branch_dst_reg_32_238"],"other_branch_dst_reg_32_239","other_branch_dst_reg_32_240","other_branch_dst_reg_32_241","other_branch_dst_reg_32_242","other_branch_dst_reg_32_243","other_branch_dst_reg_32_244","other_branch_dst_reg_32_245","other_branch_dst_reg_32_246","other_branch_dst_reg_32_247","other_branch_dst_reg_32_248","","","other_branch_dst_reg_32_249","other_branch_dst_reg_32_250","other_branch_dst_reg_32_251"],"other_branch_src_reg":["other_branch_src_reg_32_253","other_branch_src_reg_32_254",[""],["other_branch_src_reg_32_255","other_branch_src_reg_32_256"],"other_branch_src_reg_32_257","other_branch_src_reg_32_258","other_branch_src_reg_32_259","other_branch_src_reg_32_260","other_branch_src_reg_32_261","other_branch_src_reg_32_262","other_branch_src_reg_32_263","other_branch_src_reg_32_264","other_branch_src_reg_32_265","other_branch_src_reg_32_266","","","other_branch_src_reg_32_267","other_branch_src_reg_32_268","other_branch_src_reg_32_269"],"src_reg":["src_reg_32_217","src_reg_32_218",[""],["src_reg_32_219","src_reg_32_220"],"src_reg_32_221","src_reg_32_222","src_reg_32_223","src_reg_32_224","src_reg_32_225","src_reg_32_226","src_reg_32_227","src_reg_32_228","src_reg_32_229","src_reg_32_230","","","src_reg_32_231","src_reg_32_232","src_reg_32_233"]}
